certificates/rado_a5_c263_N52.cnf
c Rad2 upper bound instance: x1 + 5*x2 - x3 = 263, interval [1,52]
p cnf 52 530
1 4 52 0
-1 -4 -52 0
2 5 52 0
-2 -5 -52 0
3 6 52 0
-3 -6 -52 0
4 7 52 0
-4 -7 -52 0
5 8 52 0
-5 -8 -52 0
1 9 51 0
-1 -9 -51 0
6 9 52 0
-6 -9 -52 0
2 10 51 0
-2 -10 -51 0
7 10 52 0
-7 -10 -52 0
3 11 51 0
-3 -11 -51 0
8 11 52 0
-8 -11 -52 0
4 12 51 0
-4 -12 -51 0
9 12 52 0
-9 -12 -52 0
5 13 51 0
-5 -13 -51 0
10 13 52 0
-10 -13 -52 0
1 14 50 0
-1 -14 -50 0
6 14 51 0
-6 -14 -51 0
11 14 52 0
-11 -14 -52 0
2 15 50 0
-2 -15 -50 0
7 15 51 0
-7 -15 -51 0
12 15 52 0
-12 -15 -52 0
3 16 50 0
-3 -16 -50 0
8 16 51 0
-8 -16 -51 0
13 16 52 0
-13 -16 -52 0
4 17 50 0
-4 -17 -50 0
9 17 51 0
-9 -17 -51 0
14 17 52 0
-14 -17 -52 0
5 18 50 0
-5 -18 -50 0
10 18 51 0
-10 -18 -51 0
15 18 52 0
-15 -18 -52 0
1 19 49 0
-1 -19 -49 0
6 19 50 0
-6 -19 -50 0
11 19 51 0
-11 -19 -51 0
16 19 52 0
-16 -19 -52 0
2 20 49 0
-2 -20 -49 0
7 20 50 0
-7 -20 -50 0
12 20 51 0
-12 -20 -51 0
17 20 52 0
-17 -20 -52 0
3 21 49 0
-3 -21 -49 0
8 21 50 0
-8 -21 -50 0
13 21 51 0
-13 -21 -51 0
18 21 52 0
-18 -21 -52 0
4 22 49 0
-4 -22 -49 0
9 22 50 0
-9 -22 -50 0
14 22 51 0
-14 -22 -51 0
19 22 52 0
-19 -22 -52 0
5 23 49 0
-5 -23 -49 0
10 23 50 0
-10 -23 -50 0
15 23 51 0
-15 -23 -51 0
20 23 52 0
-20 -23 -52 0
1 24 48 0
-1 -24 -48 0
6 24 49 0
-6 -24 -49 0
11 24 50 0
-11 -24 -50 0
16 24 51 0
-16 -24 -51 0
21 24 52 0
-21 -24 -52 0
2 25 48 0
-2 -25 -48 0
7 25 49 0
-7 -25 -49 0
12 25 50 0
-12 -25 -50 0
17 25 51 0
-17 -25 -51 0
22 25 52 0
-22 -25 -52 0
3 26 48 0
-3 -26 -48 0
8 26 49 0
-8 -26 -49 0
13 26 50 0
-13 -26 -50 0
18 26 51 0
-18 -26 -51 0
23 26 52 0
-23 -26 -52 0
4 27 48 0
-4 -27 -48 0
9 27 49 0
-9 -27 -49 0
14 27 50 0
-14 -27 -50 0
19 27 51 0
-19 -27 -51 0
24 27 52 0
-24 -27 -52 0
5 28 48 0
-5 -28 -48 0
10 28 49 0
-10 -28 -49 0
15 28 50 0
-15 -28 -50 0
20 28 51 0
-20 -28 -51 0
25 28 52 0
-25 -28 -52 0
1 29 47 0
-1 -29 -47 0
6 29 48 0
-6 -29 -48 0
11 29 49 0
-11 -29 -49 0
16 29 50 0
-16 -29 -50 0
21 29 51 0
-21 -29 -51 0
26 29 52 0
-26 -29 -52 0
2 30 47 0
-2 -30 -47 0
7 30 48 0
-7 -30 -48 0
12 30 49 0
-12 -30 -49 0
17 30 50 0
-17 -30 -50 0
22 30 51 0
-22 -30 -51 0
27 30 52 0
-27 -30 -52 0
3 31 47 0
-3 -31 -47 0
8 31 48 0
-8 -31 -48 0
13 31 49 0
-13 -31 -49 0
18 31 50 0
-18 -31 -50 0
23 31 51 0
-23 -31 -51 0
28 31 52 0
-28 -31 -52 0
4 32 47 0
-4 -32 -47 0
9 32 48 0
-9 -32 -48 0
14 32 49 0
-14 -32 -49 0
19 32 50 0
-19 -32 -50 0
24 32 51 0
-24 -32 -51 0
29 32 52 0
-29 -32 -52 0
5 33 47 0
-5 -33 -47 0
10 33 48 0
-10 -33 -48 0
15 33 49 0
-15 -33 -49 0
20 33 50 0
-20 -33 -50 0
25 33 51 0
-25 -33 -51 0
30 33 52 0
-30 -33 -52 0
1 34 46 0
-1 -34 -46 0
6 34 47 0
-6 -34 -47 0
11 34 48 0
-11 -34 -48 0
16 34 49 0
-16 -34 -49 0
21 34 50 0
-21 -34 -50 0
26 34 51 0
-26 -34 -51 0
31 34 52 0
-31 -34 -52 0
2 35 46 0
-2 -35 -46 0
7 35 47 0
-7 -35 -47 0
12 35 48 0
-12 -35 -48 0
17 35 49 0
-17 -35 -49 0
22 35 50 0
-22 -35 -50 0
27 35 51 0
-27 -35 -51 0
32 35 52 0
-32 -35 -52 0
3 36 46 0
-3 -36 -46 0
8 36 47 0
-8 -36 -47 0
13 36 48 0
-13 -36 -48 0
18 36 49 0
-18 -36 -49 0
23 36 50 0
-23 -36 -50 0
28 36 51 0
-28 -36 -51 0
33 36 52 0
-33 -36 -52 0
4 37 46 0
-4 -37 -46 0
9 37 47 0
-9 -37 -47 0
14 37 48 0
-14 -37 -48 0
19 37 49 0
-19 -37 -49 0
24 37 50 0
-24 -37 -50 0
29 37 51 0
-29 -37 -51 0
34 37 52 0
-34 -37 -52 0
5 38 46 0
-5 -38 -46 0
10 38 47 0
-10 -38 -47 0
15 38 48 0
-15 -38 -48 0
20 38 49 0
-20 -38 -49 0
25 38 50 0
-25 -38 -50 0
30 38 51 0
-30 -38 -51 0
35 38 52 0
-35 -38 -52 0
1 39 45 0
-1 -39 -45 0
6 39 46 0
-6 -39 -46 0
11 39 47 0
-11 -39 -47 0
16 39 48 0
-16 -39 -48 0
21 39 49 0
-21 -39 -49 0
26 39 50 0
-26 -39 -50 0
31 39 51 0
-31 -39 -51 0
36 39 52 0
-36 -39 -52 0
2 40 45 0
-2 -40 -45 0
7 40 46 0
-7 -40 -46 0
12 40 47 0
-12 -40 -47 0
17 40 48 0
-17 -40 -48 0
22 40 49 0
-22 -40 -49 0
27 40 50 0
-27 -40 -50 0
32 40 51 0
-32 -40 -51 0
37 40 52 0
-37 -40 -52 0
3 41 45 0
-3 -41 -45 0
8 41 46 0
-8 -41 -46 0
13 41 47 0
-13 -41 -47 0
18 41 48 0
-18 -41 -48 0
23 41 49 0
-23 -41 -49 0
28 41 50 0
-28 -41 -50 0
33 41 51 0
-33 -41 -51 0
38 41 52 0
-38 -41 -52 0
4 42 45 0
-4 -42 -45 0
9 42 46 0
-9 -42 -46 0
14 42 47 0
-14 -42 -47 0
19 42 48 0
-19 -42 -48 0
24 42 49 0
-24 -42 -49 0
29 42 50 0
-29 -42 -50 0
34 42 51 0
-34 -42 -51 0
39 42 52 0
-39 -42 -52 0
5 43 45 0
-5 -43 -45 0
10 43 46 0
-10 -43 -46 0
15 43 47 0
-15 -43 -47 0
20 43 48 0
-20 -43 -48 0
25 43 49 0
-25 -43 -49 0
30 43 50 0
-30 -43 -50 0
35 43 51 0
-35 -43 -51 0
40 43 52 0
-40 -43 -52 0
1 44 0
-1 -44 0
6 44 45 0
-6 -44 -45 0
11 44 46 0
-11 -44 -46 0
16 44 47 0
-16 -44 -47 0
21 44 48 0
-21 -44 -48 0
26 44 49 0
-26 -44 -49 0
31 44 50 0
-31 -44 -50 0
36 44 51 0
-36 -44 -51 0
41 44 52 0
-41 -44 -52 0
2 44 45 0
-2 -44 -45 0
7 45 0
-7 -45 0
12 45 46 0
-12 -45 -46 0
17 45 47 0
-17 -45 -47 0
22 45 48 0
-22 -45 -48 0
27 45 49 0
-27 -45 -49 0
32 45 50 0
-32 -45 -50 0
37 45 51 0
-37 -45 -51 0
42 45 52 0
-42 -45 -52 0
3 44 46 0
-3 -44 -46 0
8 45 46 0
-8 -45 -46 0
13 46 0
-13 -46 0
18 46 47 0
-18 -46 -47 0
23 46 48 0
-23 -46 -48 0
28 46 49 0
-28 -46 -49 0
33 46 50 0
-33 -46 -50 0
38 46 51 0
-38 -46 -51 0
43 46 52 0
-43 -46 -52 0
4 44 47 0
-4 -44 -47 0
9 45 47 0
-9 -45 -47 0
14 46 47 0
-14 -46 -47 0
19 47 0
-19 -47 0
24 47 48 0
-24 -47 -48 0
29 47 49 0
-29 -47 -49 0
34 47 50 0
-34 -47 -50 0
39 47 51 0
-39 -47 -51 0
44 47 52 0
-44 -47 -52 0
5 44 48 0
-5 -44 -48 0
10 45 48 0
-10 -45 -48 0
15 46 48 0
-15 -46 -48 0
20 47 48 0
-20 -47 -48 0
25 48 0
-25 -48 0
30 48 49 0
-30 -48 -49 0
35 48 50 0
-35 -48 -50 0
40 48 51 0
-40 -48 -51 0
45 48 52 0
-45 -48 -52 0
1 43 49 0
-1 -43 -49 0
6 44 49 0
-6 -44 -49 0
11 45 49 0
-11 -45 -49 0
16 46 49 0
-16 -46 -49 0
21 47 49 0
-21 -47 -49 0
26 48 49 0
-26 -48 -49 0
31 49 0
-31 -49 0
36 49 50 0
-36 -49 -50 0
41 49 51 0
-41 -49 -51 0
46 49 52 0
-46 -49 -52 0
2 43 50 0
-2 -43 -50 0
7 44 50 0
-7 -44 -50 0
12 45 50 0
-12 -45 -50 0
17 46 50 0
-17 -46 -50 0
22 47 50 0
-22 -47 -50 0
27 48 50 0
-27 -48 -50 0
32 49 50 0
-32 -49 -50 0
37 50 0
-37 -50 0
42 50 51 0
-42 -50 -51 0
47 50 52 0
-47 -50 -52 0
3 43 51 0
-3 -43 -51 0
8 44 51 0
-8 -44 -51 0
13 45 51 0
-13 -45 -51 0
18 46 51 0
-18 -46 -51 0
23 47 51 0
-23 -47 -51 0
28 48 51 0
-28 -48 -51 0
33 49 51 0
-33 -49 -51 0
38 50 51 0
-38 -50 -51 0
43 51 0
-43 -51 0
48 51 52 0
-48 -51 -52 0
4 43 52 0
-4 -43 -52 0
9 44 52 0
-9 -44 -52 0
14 45 52 0
-14 -45 -52 0
19 46 52 0
-19 -46 -52 0
24 47 52 0
-24 -47 -52 0
29 48 52 0
-29 -48 -52 0
34 49 52 0
-34 -49 -52 0
39 50 52 0
-39 -50 -52 0
44 51 52 0
-44 -51 -52 0
49 52 0
-49 -52 0
