certificates/rado_a5_c263_N52.drat
-52 0
49 0
-31 0
28 0
34 0
-10 0
-46 0
-16 0
7 0
13 0
43 0
19 0
-25 0
-45 0
-1 0
-51 0
-37 0
-47 0
17 0
22 0
33 0
48 0
12 0
0
